c 
c U(n,d) graph
c graph gen seed     : 7371
c number of vertices : 60
c max number of edges: 1770
c Euclidean distance : 0.400000
c data structure     : sparse
c
c           Graph Stats
c number of vertices  : 60
c nonisolated vertices: 60
c number of edges     : 655
c edge density        : 0.370056
c max degree          : 34
c avg degree          : 21.83
c min degree          : 6
p col 60 655
e 1 59
e 1 54
e 1 53
e 1 44
e 1 37
e 1 33
e 1 30
e 1 28
e 1 24
e 1 22
e 1 21
e 1 13
e 1 8
e 1 6
e 2 60
e 2 59
e 2 57
e 2 51
e 2 50
e 2 48
e 2 47
e 2 46
e 2 45
e 2 43
e 2 42
e 2 40
e 2 39
e 2 36
e 2 35
e 2 34
e 2 31
e 2 30
e 2 29
e 2 26
e 2 25
e 2 23
e 2 18
e 2 17
e 2 15
e 2 12
e 2 11
e 2 10
e 2 9
e 2 7
e 2 5
e 2 4
e 3 57
e 3 56
e 3 55
e 3 54
e 3 53
e 3 42
e 3 41
e 3 39
e 3 36
e 3 33
e 3 30
e 3 28
e 3 24
e 3 22
e 3 21
e 3 19
e 3 18
e 3 13
e 3 6
e 4 60
e 4 51
e 4 49
e 4 48
e 4 47
e 4 46
e 4 40
e 4 35
e 4 29
e 4 26
e 4 25
e 4 23
e 4 15
e 4 12
e 4 11
e 4 7
e 4 5
e 5 60
e 5 49
e 5 48
e 5 47
e 5 46
e 5 45
e 5 40
e 5 35
e 5 31
e 5 29
e 5 26
e 5 23
e 5 15
e 5 12
e 5 11
e 5 7
e 6 56
e 6 55
e 6 54
e 6 53
e 6 33
e 6 28
e 6 24
e 6 22
e 6 21
e 6 19
e 6 13
e 7 60
e 7 57
e 7 51
e 7 50
e 7 49
e 7 48
e 7 47
e 7 46
e 7 45
e 7 43
e 7 42
e 7 40
e 7 39
e 7 36
e 7 35
e 7 34
e 7 31
e 7 29
e 7 26
e 7 23
e 7 18
e 7 17
e 7 15
e 7 12
e 7 11
e 7 10
e 7 9
e 8 59
e 8 54
e 8 53
e 8 52
e 8 51
e 8 44
e 8 38
e 8 37
e 8 32
e 8 30
e 8 28
e 8 27
e 8 25
e 8 24
e 8 22
e 8 20
e 8 17
e 8 16
e 8 14
e 8 13
e 9 58
e 9 57
e 9 50
e 9 48
e 9 46
e 9 45
e 9 43
e 9 42
e 9 41
e 9 40
e 9 39
e 9 36
e 9 35
e 9 34
e 9 31
e 9 18
e 9 17
e 9 15
e 9 11
e 9 10
e 10 58
e 10 57
e 10 50
e 10 48
e 10 45
e 10 43
e 10 41
e 10 39
e 10 36
e 10 34
e 10 31
e 10 18
e 10 15
e 10 11
e 11 60
e 11 51
e 11 50
e 11 49
e 11 48
e 11 47
e 11 46
e 11 45
e 11 43
e 11 40
e 11 39
e 11 35
e 11 34
e 11 31
e 11 29
e 11 26
e 11 23
e 11 18
e 11 17
e 11 15
e 11 12
e 12 60
e 12 59
e 12 51
e 12 49
e 12 48
e 12 47
e 12 46
e 12 40
e 12 35
e 12 34
e 12 32
e 12 29
e 12 26
e 12 25
e 12 23
e 12 20
e 12 17
e 12 15
e 13 59
e 13 54
e 13 53
e 13 44
e 13 37
e 13 33
e 13 30
e 13 28
e 13 24
e 13 22
e 13 21
e 14 52
e 14 44
e 14 38
e 14 37
e 14 32
e 14 27
e 14 25
e 14 20
e 14 16
e 15 60
e 15 59
e 15 57
e 15 53
e 15 51
e 15 50
e 15 48
e 15 47
e 15 46
e 15 45
e 15 43
e 15 42
e 15 40
e 15 39
e 15 36
e 15 35
e 15 34
e 15 32
e 15 31
e 15 30
e 15 29
e 15 26
e 15 25
e 15 23
e 15 18
e 15 17
e 16 52
e 16 44
e 16 38
e 16 37
e 16 32
e 16 27
e 16 25
e 16 20
e 17 60
e 17 59
e 17 57
e 17 53
e 17 51
e 17 48
e 17 46
e 17 45
e 17 43
e 17 42
e 17 40
e 17 39
e 17 35
e 17 34
e 17 33
e 17 32
e 17 31
e 17 30
e 17 29
e 17 28
e 17 26
e 17 25
e 17 24
e 17 22
e 17 21
e 17 18
e 18 58
e 18 57
e 18 55
e 18 50
e 18 48
e 18 46
e 18 45
e 18 43
e 18 42
e 18 41
e 18 39
e 18 36
e 18 35
e 18 34
e 18 31
e 18 19
e 19 57
e 19 56
e 19 55
e 19 54
e 19 42
e 19 41
e 19 36
e 19 33
e 19 22
e 19 21
e 20 59
e 20 52
e 20 51
e 20 44
e 20 38
e 20 37
e 20 32
e 20 30
e 20 29
e 20 27
e 20 25
e 21 59
e 21 57
e 21 56
e 21 55
e 21 54
e 21 53
e 21 42
e 21 41
e 21 39
e 21 33
e 21 30
e 21 28
e 21 24
e 21 22
e 22 59
e 22 57
e 22 56
e 22 55
e 22 54
e 22 53
e 22 51
e 22 43
e 22 42
e 22 41
e 22 39
e 22 35
e 22 34
e 22 33
e 22 30
e 22 28
e 22 24
e 23 60
e 23 51
e 23 49
e 23 48
e 23 47
e 23 46
e 23 45
e 23 40
e 23 35
e 23 34
e 23 29
e 23 26
e 23 25
e 24 59
e 24 56
e 24 54
e 24 53
e 24 51
e 24 44
e 24 42
e 24 37
e 24 33
e 24 32
e 24 30
e 24 28
e 25 59
e 25 52
e 25 51
e 25 48
e 25 47
e 25 46
e 25 44
e 25 40
e 25 37
e 25 35
e 25 34
e 25 32
e 25 30
e 25 29
e 25 27
e 25 26
e 26 60
e 26 59
e 26 51
e 26 49
e 26 48
e 26 47
e 26 46
e 26 45
e 26 43
e 26 40
e 26 35
e 26 34
e 26 32
e 26 30
e 26 29
e 27 59
e 27 52
e 27 51
e 27 44
e 27 38
e 27 37
e 27 32
e 27 30
e 28 59
e 28 57
e 28 56
e 28 55
e 28 54
e 28 53
e 28 44
e 28 42
e 28 33
e 28 30
e 29 60
e 29 59
e 29 52
e 29 51
e 29 48
e 29 47
e 29 46
e 29 43
e 29 40
e 29 35
e 29 34
e 29 32
e 29 30
e 30 59
e 30 57
e 30 54
e 30 53
e 30 52
e 30 51
e 30 48
e 30 46
e 30 44
e 30 43
e 30 42
e 30 40
e 30 39
e 30 37
e 30 35
e 30 34
e 30 33
e 30 32
e 31 60
e 31 57
e 31 50
e 31 48
e 31 46
e 31 45
e 31 43
e 31 40
e 31 39
e 31 36
e 31 35
e 31 34
e 32 59
e 32 53
e 32 52
e 32 51
e 32 46
e 32 44
e 32 40
e 32 38
e 32 37
e 32 35
e 32 34
e 33 59
e 33 57
e 33 56
e 33 55
e 33 54
e 33 53
e 33 42
e 33 41
e 33 34
e 34 60
e 34 59
e 34 57
e 34 53
e 34 51
e 34 50
e 34 48
e 34 46
e 34 45
e 34 43
e 34 42
e 34 41
e 34 40
e 34 39
e 34 36
e 34 35
e 35 60
e 35 59
e 35 57
e 35 53
e 35 51
e 35 48
e 35 47
e 35 46
e 35 45
e 35 43
e 35 42
e 35 40
e 35 39
e 36 58
e 36 57
e 36 55
e 36 50
e 36 48
e 36 45
e 36 43
e 36 42
e 36 41
e 36 39
e 37 59
e 37 53
e 37 52
e 37 51
e 37 44
e 37 38
e 38 52
e 38 44
e 39 59
e 39 57
e 39 55
e 39 53
e 39 50
e 39 48
e 39 46
e 39 45
e 39 43
e 39 42
e 39 41
e 39 40
e 40 60
e 40 59
e 40 51
e 40 49
e 40 48
e 40 47
e 40 46
e 40 45
e 40 43
e 41 58
e 41 57
e 41 56
e 41 55
e 41 50
e 41 43
e 41 42
e 42 59
e 42 57
e 42 56
e 42 55
e 42 54
e 42 53
e 42 51
e 42 50
e 42 48
e 42 46
e 42 43
e 43 60
e 43 59
e 43 57
e 43 53
e 43 51
e 43 50
e 43 48
e 43 46
e 43 45
e 44 59
e 44 53
e 44 52
e 44 51
e 45 60
e 45 57
e 45 50
e 45 48
e 45 46
e 46 60
e 46 59
e 46 57
e 46 51
e 46 49
e 46 48
e 46 47
e 47 60
e 47 51
e 47 49
e 48 60
e 48 59
e 48 57
e 48 51
e 48 50
e 49 60
e 50 58
e 50 57
e 50 55
e 51 59
e 51 57
e 51 53
e 51 52
e 52 59
e 53 59
e 53 57
e 53 56
e 53 55
e 53 54
e 54 59
e 54 57
e 54 56
e 54 55
e 55 57
e 55 56
e 56 57
e 57 59
